NAME : F11.176997.tour
COMMENT : Length = 176997
COMMENT : Found by LKH [Keld Helsgaun] Sun Dec 17 17:08:22 2017
TYPE : TOUR
DIMENSION : 75
TOUR_SECTION
1
32
33
35
55
56
42
58
57
61
62
59
60
64
63
65
66
67
68
40
69
70
38
39
41
73
34
15
16
2
72
7
11
6
4
9
5
8
10
75
37
36
19
12
20
3
18
17
13
14
74
21
30
24
25
26
27
31
22
23
29
28
50
52
71
51
48
49
45
43
44
47
54
46
53
-1
EOF
